T = 6;
Dn = [20, 12, 16, 19, 11, 19];
Ds = [9, 9, 8, 6, 12, 13];
R = [13, 20, 15, 19, 10, 16];
f = [13, 20, 13, 10, 11, 13];
pn = [4, 6, 2, 3, 7, 2];
ps = [5, 1, 1, 4, 4, 2];
pr = [1, 1, 3, 3, 3, 1];
hn = [2, 3, 2, 3, 2, 4];
hs = [2, 1, 2, 2, 2, 2];
hr = [1, 1, 1, 1, 1, 1];
